17	4
14	13	12	13	
0	0	0	0	0	3	2	3	4	
9	0	6	6	0	3	5	7	17	
6	7	3	1	0	3	8	15	17	
10	0	0	9	1	3	6	12	17	
5	5	0	0	5	2	9	11	
150	4	7	0	8	2	17	17	
200	9	8	8	3	2	10	17	
75	0	0	0	9	1	17	
200	0	0	0	3	3	13	17	17	
175	0	0	9	3	2	14	17	
50	5	3	5	6	1	17	
100	0	0	6	0	2	16	17	
7	4	9	0	0	1	17	
10	0	4	8	0	1	17	
8	0	5	6	0	1	17	
6	3	0	7	6	3	17	17	17	
0	0	0	0	0	0	
